c File: flat50_3_0.col
c
c SOURCE: Joseph Culberson (joe@cs.ualberta.ca)
c DESCRIPTION: Quasi-random coloring problem
c              generated with flatness = 0
c                             probability = 0.139
c                             known coloring = 3
c                             random seed = 1794
c              Creation Date:  Tue Jun  9 12:18:05 1998
c Maximum degree = 8 Minimum degree = 1
c p edge 50 115
c cnf created by edge2cnf
p cnf 150 545
-1 -2 0
-1 -3 0
-2 -3 0
1 2 3 0
-4 -5 0
-4 -6 0
-5 -6 0
4 5 6 0
-7 -8 0
-7 -9 0
-8 -9 0
7 8 9 0
-10 -11 0
-10 -12 0
-11 -12 0
10 11 12 0
-13 -14 0
-13 -15 0
-14 -15 0
13 14 15 0
-16 -17 0
-16 -18 0
-17 -18 0
16 17 18 0
-19 -20 0
-19 -21 0
-20 -21 0
19 20 21 0
-22 -23 0
-22 -24 0
-23 -24 0
22 23 24 0
-25 -26 0
-25 -27 0
-26 -27 0
25 26 27 0
-28 -29 0
-28 -30 0
-29 -30 0
28 29 30 0
-31 -32 0
-31 -33 0
-32 -33 0
31 32 33 0
-34 -35 0
-34 -36 0
-35 -36 0
34 35 36 0
-37 -38 0
-37 -39 0
-38 -39 0
37 38 39 0
-40 -41 0
-40 -42 0
-41 -42 0
40 41 42 0
-43 -44 0
-43 -45 0
-44 -45 0
43 44 45 0
-46 -47 0
-46 -48 0
-47 -48 0
46 47 48 0
-49 -50 0
-49 -51 0
-50 -51 0
49 50 51 0
-52 -53 0
-52 -54 0
-53 -54 0
52 53 54 0
-55 -56 0
-55 -57 0
-56 -57 0
55 56 57 0
-58 -59 0
-58 -60 0
-59 -60 0
58 59 60 0
-61 -62 0
-61 -63 0
-62 -63 0
61 62 63 0
-64 -65 0
-64 -66 0
-65 -66 0
64 65 66 0
-67 -68 0
-67 -69 0
-68 -69 0
67 68 69 0
-70 -71 0
-70 -72 0
-71 -72 0
70 71 72 0
-73 -74 0
-73 -75 0
-74 -75 0
73 74 75 0
-76 -77 0
-76 -78 0
-77 -78 0
76 77 78 0
-79 -80 0
-79 -81 0
-80 -81 0
79 80 81 0
-82 -83 0
-82 -84 0
-83 -84 0
82 83 84 0
-85 -86 0
-85 -87 0
-86 -87 0
85 86 87 0
-88 -89 0
-88 -90 0
-89 -90 0
88 89 90 0
-91 -92 0
-91 -93 0
-92 -93 0
91 92 93 0
-94 -95 0
-94 -96 0
-95 -96 0
94 95 96 0
-97 -98 0
-97 -99 0
-98 -99 0
97 98 99 0
-100 -101 0
-100 -102 0
-101 -102 0
100 101 102 0
-103 -104 0
-103 -105 0
-104 -105 0
103 104 105 0
-106 -107 0
-106 -108 0
-107 -108 0
106 107 108 0
-109 -110 0
-109 -111 0
-110 -111 0
109 110 111 0
-112 -113 0
-112 -114 0
-113 -114 0
112 113 114 0
-115 -116 0
-115 -117 0
-116 -117 0
115 116 117 0
-118 -119 0
-118 -120 0
-119 -120 0
118 119 120 0
-121 -122 0
-121 -123 0
-122 -123 0
121 122 123 0
-124 -125 0
-124 -126 0
-125 -126 0
124 125 126 0
-127 -128 0
-127 -129 0
-128 -129 0
127 128 129 0
-130 -131 0
-130 -132 0
-131 -132 0
130 131 132 0
-133 -134 0
-133 -135 0
-134 -135 0
133 134 135 0
-136 -137 0
-136 -138 0
-137 -138 0
136 137 138 0
-139 -140 0
-139 -141 0
-140 -141 0
139 140 141 0
-142 -143 0
-142 -144 0
-143 -144 0
142 143 144 0
-145 -146 0
-145 -147 0
-146 -147 0
145 146 147 0
-148 -149 0
-148 -150 0
-149 -150 0
148 149 150 0
-76 -1 0
-77 -2 0
-78 -3 0
-82 -1 0
-83 -2 0
-84 -3 0
-85 -1 0
-86 -2 0
-87 -3 0
-88 -1 0
-89 -2 0
-90 -3 0
-112 -1 0
-113 -2 0
-114 -3 0
-130 -1 0
-131 -2 0
-132 -3 0
-142 -1 0
-143 -2 0
-144 -3 0
-145 -1 0
-146 -2 0
-147 -3 0
-61 -4 0
-62 -5 0
-63 -6 0
-94 -4 0
-95 -5 0
-96 -6 0
-58 -7 0
-59 -8 0
-60 -9 0
-67 -7 0
-68 -8 0
-69 -9 0
-115 -7 0
-116 -8 0
-117 -9 0
-124 -7 0
-125 -8 0
-126 -9 0
-85 -10 0
-86 -11 0
-87 -12 0
-124 -10 0
-125 -11 0
-126 -12 0
-52 -13 0
-53 -14 0
-54 -15 0
-121 -13 0
-122 -14 0
-123 -15 0
-136 -13 0
-137 -14 0
-138 -15 0
-73 -16 0
-74 -17 0
-75 -18 0
-82 -16 0
-83 -17 0
-84 -18 0
-91 -16 0
-92 -17 0
-93 -18 0
-121 -16 0
-122 -17 0
-123 -18 0
-142 -16 0
-143 -17 0
-144 -18 0
-79 -19 0
-80 -20 0
-81 -21 0
-85 -19 0
-86 -20 0
-87 -21 0
-88 -19 0
-89 -20 0
-90 -21 0
-133 -19 0
-134 -20 0
-135 -21 0
-139 -19 0
-140 -20 0
-141 -21 0
-64 -22 0
-65 -23 0
-66 -24 0
-67 -22 0
-68 -23 0
-69 -24 0
-103 -22 0
-104 -23 0
-105 -24 0
-112 -22 0
-113 -23 0
-114 -24 0
-130 -22 0
-131 -23 0
-132 -24 0
-145 -22 0
-146 -23 0
-147 -24 0
-73 -25 0
-74 -26 0
-75 -27 0
-91 -25 0
-92 -26 0
-93 -27 0
-148 -25 0
-149 -26 0
-150 -27 0
-52 -28 0
-53 -29 0
-54 -30 0
-118 -28 0
-119 -29 0
-120 -30 0
-64 -31 0
-65 -32 0
-66 -33 0
-94 -31 0
-95 -32 0
-96 -33 0
-121 -31 0
-122 -32 0
-123 -33 0
-136 -31 0
-137 -32 0
-138 -33 0
-139 -31 0
-140 -32 0
-141 -33 0
-148 -31 0
-149 -32 0
-150 -33 0
-64 -34 0
-65 -35 0
-66 -36 0
-67 -34 0
-68 -35 0
-69 -36 0
-76 -34 0
-77 -35 0
-78 -36 0
-82 -34 0
-83 -35 0
-84 -36 0
-103 -34 0
-104 -35 0
-105 -36 0
-133 -34 0
-134 -35 0
-135 -36 0
-52 -37 0
-53 -38 0
-54 -39 0
-67 -37 0
-68 -38 0
-69 -39 0
-76 -37 0
-77 -38 0
-78 -39 0
-79 -37 0
-80 -38 0
-81 -39 0
-148 -37 0
-149 -38 0
-150 -39 0
-52 -40 0
-53 -41 0
-54 -42 0
-124 -40 0
-125 -41 0
-126 -42 0
-55 -43 0
-56 -44 0
-57 -45 0
-100 -43 0
-101 -44 0
-102 -45 0
-136 -43 0
-137 -44 0
-138 -45 0
-142 -43 0
-143 -44 0
-144 -45 0
-148 -43 0
-149 -44 0
-150 -45 0
-55 -46 0
-56 -47 0
-57 -48 0
-79 -46 0
-80 -47 0
-81 -48 0
-82 -46 0
-83 -47 0
-84 -48 0
-91 -46 0
-92 -47 0
-93 -48 0
-106 -46 0
-107 -47 0
-108 -48 0
-112 -46 0
-113 -47 0
-114 -48 0
-136 -46 0
-137 -47 0
-138 -48 0
-139 -46 0
-140 -47 0
-141 -48 0
-76 -49 0
-77 -50 0
-78 -51 0
-88 -49 0
-89 -50 0
-90 -51 0
-109 -49 0
-110 -50 0
-111 -51 0
-115 -49 0
-116 -50 0
-117 -51 0
-130 -49 0
-131 -50 0
-132 -51 0
-124 -52 0
-125 -53 0
-126 -54 0
-127 -52 0
-128 -53 0
-129 -54 0
-139 -55 0
-140 -56 0
-141 -57 0
-136 -58 0
-137 -59 0
-138 -60 0
-118 -61 0
-119 -62 0
-120 -63 0
-121 -61 0
-122 -62 0
-123 -63 0
-121 -64 0
-122 -65 0
-123 -66 0
-130 -64 0
-131 -65 0
-132 -66 0
-139 -64 0
-140 -65 0
-141 -66 0
-136 -67 0
-137 -68 0
-138 -69 0
-142 -67 0
-143 -68 0
-144 -69 0
-115 -70 0
-116 -71 0
-117 -72 0
-118 -70 0
-119 -71 0
-120 -72 0
-121 -70 0
-122 -71 0
-123 -72 0
-133 -73 0
-134 -74 0
-135 -75 0
-139 -73 0
-140 -74 0
-141 -75 0
-142 -73 0
-143 -74 0
-144 -75 0
-103 -76 0
-104 -77 0
-105 -78 0
-127 -76 0
-128 -77 0
-129 -78 0
-136 -76 0
-137 -77 0
-138 -78 0
-109 -79 0
-110 -80 0
-111 -81 0
-130 -79 0
-131 -80 0
-132 -81 0
-139 -79 0
-140 -80 0
-141 -81 0
-142 -79 0
-143 -80 0
-144 -81 0
-115 -82 0
-116 -83 0
-117 -84 0
-145 -82 0
-146 -83 0
-147 -84 0
-124 -88 0
-125 -89 0
-126 -90 0
-145 -88 0
-146 -89 0
-147 -90 0
-103 -91 0
-104 -92 0
-105 -93 0
-145 -91 0
-146 -92 0
-147 -93 0
-148 -91 0
-149 -92 0
-150 -93 0
-109 -94 0
-110 -95 0
-111 -96 0
-118 -94 0
-119 -95 0
-120 -96 0
-103 -97 0
-104 -98 0
-105 -99 0
-127 -97 0
-128 -98 0
-129 -99 0
-121 -100 0
-122 -101 0
-123 -102 0
-130 -100 0
-131 -101 0
-132 -102 0
-145 -100 0
-146 -101 0
-147 -102 0
